NAME : amz0572.161399_156899.tour
COMMENT : Cost = 161399_156899
COMMENT : Found by LKH-AMZ [Keld Helsgaun] Sun May 11 14:34:44 2025
COMMENT : TW viol.: 0 #: 0
TYPE : TOUR
DIMENSION : 165
TOUR_SECTION
110
155
89
16
85
104
136
140
55
102
132
149
125
90
153
128
13
19
61
105
122
130
152
115
121
93
48
23
88
45
114
134
113
70
119
158
49
26
141
103
148
135
151
22
75
4
79
52
58
91
17
82
14
160
1
68
38
129
117
34
62
72
150
57
47
96
40
120
145
118
87
156
137
111
108
109
106
51
84
59
159
32
139
73
138
164
99
54
30
64
50
53
80
11
29
86
8
33
101
81
74
133
42
77
46
107
163
39
60
10
67
31
127
2
43
78
12
9
37
142
21
165
15
112
97
116
92
100
27
20
124
123
28
7
94
154
143
63
157
41
25
147
69
36
24
71
95
83
18
35
56
3
146
161
5
162
66
65
98
131
44
126
144
6
76
-1
EOF
